9919.23,61.32,76.06
9974.63,60.98,75.64
10118.02,60.11,74.57
10107.66,60.17,74.65
9868.5,61.63,76.45
9780.24,62.19,77.14
9305.23,65.36,81.08
9752.89,62.36,77.36
9654.04,63.0,78.15
10470.73,58.09,72.06
8930.29,68.11,84.49
10496.1,57.95,71.88
9904.73,61.41,76.17
10405.96,58.45,72.51
9826.48,61.9,76.78
10006.52,60.78,75.4
8969.6,67.81,84.12
9518.29,63.9,79.27
10044.11,60.55,75.12
10029.03,60.65,75.23
